c turning on binary mode checking
c parsing input formula with 259840 variables and 1039929 clauses
c finished parsing, read 23445571 bytes from proof file
c detected empty clause; start verification via backward checking
c 12791 of 1039929 clauses in core                            
c 16099 of 605315 lemmas in core using 105462 resolution steps
c 0 RAT lemmas in core; 783 redundant literals in core lemmas
s VERIFIED
c verification time: 2.850 seconds
